\ENCODING=ISO-8859-1
\Problem name: ilog.cplex

Maximize
 obj: 525 x(0)#0 + 686 x(1)#1 + 565 x(2)#2 + 456 x(3)#3 + 545 x(4)#4
      + 952 x(5)#5 + 1000 x(6)#6 + 1023 x(7)#7 + 817 x(8)#8 + 987 x(9)#9
      + 793 x(10)#10 + 905 x(11)#11 + 868 x(12)#12 + 1091 x(13)#13
      + 743 x(14)#14 + 587 x(15)#15 + 714 x(16)#16 + 692 x(17)#17
      + 853 x(18)#18 + 869 x(19)#19 + 714 x(20)#20 + 515 x(21)#21
      + 623 x(22)#22 + 661 x(23)#23 + 940 x(24)#24 + 1011 x(25)#25
      + 1013 x(26)#26 + 638 x(27)#27 + 1003 x(28)#28 + 759 x(29)#29
      + 886 x(30)#30 + 517 x(31)#31 + 841 x(32)#32 + 946 x(33)#33
      + 1058 x(34)#34 + 795 x(35)#35 + 655 x(36)#36 + 1086 x(37)#37
      + 661 x(38)#38 + 702 x(39)#39 + 681 x(40)#40 + 707 x(41)#41
      + 705 x(42)#42 + 1014 x(43)#43 + 823 x(44)#44 + 372 x(45)#45
      + 1004 x(46)#46 + 563 x(47)#47 + 913 x(48)#48 + 420 x(49)#49
      + 582 x(50)#50 + 1013 x(51)#51 + 913 x(52)#52 + 767 x(53)#53
      + 639 x(54)#54 + 937 x(55)#55 + 726 x(56)#56 + 678 x(57)#57
      + 460 x(58)#58 + 814 x(59)#59 + 676 x(60)#60 + 840 x(61)#61
      + 721 x(62)#62 + 914 x(63)#63 + 491 x(64)#64 + 760 x(65)#65
      + 878 x(66)#66 + 960 x(67)#67 + 879 x(68)#68 + 862 x(69)#69
      + 725 x(70)#70 + 1020 x(71)#71 + 714 x(72)#72 + 588 x(73)#73
      + 554 x(74)#74 + 840 x(75)#75 + 962 x(76)#76 + 562 x(77)#77
      + 742 x(78)#78 + 884 x(79)#79 + 427 x(80)#80 + 699 x(81)#81
      + 974 x(82)#82 + 846 x(83)#83 + 705 x(84)#84 + 492 x(85)#85
      + 538 x(86)#86 + 993 x(87)#87 + 546 x(88)#88 + 684 x(89)#89
      + 850 x(90)#90 + 860 x(91)#91 + 961 x(92)#92 + 693 x(93)#93
      + 758 x(94)#94 + 773 x(95)#95 + 677 x(96)#96 + 932 x(97)#97
      + 577 x(98)#98 + 964 x(99)#99
Subject To
 c1:  133 x(0)#0 + 684 x(1)#1 + 242 x(2)#2 + 449 x(3)#3 + 865 x(4)#4
      + 164 x(5)#5 + 838 x(6)#6 + 654 x(7)#7 + 213 x(8)#8 + 389 x(9)#9
      + 272 x(10)#10 + 121 x(11)#11 + 403 x(12)#12 + 983 x(13)#13
      + 424 x(14)#14 + 870 x(15)#15 + 431 x(16)#16 + 74 x(17)#17 + 81 x(18)#18
      + 738 x(19)#19 + 299 x(20)#20 + 126 x(21)#21 + 69 x(22)#22 + 686 x(23)#23
      + 72 x(24)#24 + 634 x(25)#25 + 744 x(26)#26 + 336 x(27)#27 + 916 x(28)#28
      + 486 x(29)#29 + 974 x(30)#30 + 574 x(31)#31 + 183 x(32)#32
      + 906 x(33)#33 + 475 x(34)#34 + 634 x(35)#35 + 691 x(36)#36
      + 778 x(37)#37 + 255 x(38)#38 + 892 x(39)#39 + 966 x(40)#40
      + 592 x(41)#41 + 222 x(42)#42 + 411 x(43)#43 + 57 x(44)#44 + 24 x(45)#45
      + 72 x(46)#46 + 56 x(47)#47 + 70 x(48)#48 + 9 x(49)#49 + 933 x(50)#50
      + 248 x(51)#51 + 956 x(52)#52 + 177 x(53)#53 + 350 x(54)#54
      + 928 x(55)#55 + 322 x(56)#56 + 734 x(57)#57 + 268 x(58)#58
      + 718 x(59)#59 + 637 x(60)#60 + 955 x(61)#61 + 786 x(62)#62 + 28 x(63)#63
      + 217 x(64)#64 + 241 x(65)#65 + 601 x(66)#66 + 771 x(67)#67
      + 601 x(68)#68 + 345 x(69)#69 + 375 x(70)#70 + 424 x(71)#71
      + 767 x(72)#72 + 738 x(73)#73 + 534 x(74)#74 + 353 x(75)#75
      + 586 x(76)#76 + 399 x(77)#77 + 462 x(78)#78 + 903 x(79)#79 + 98 x(80)#80
      + 614 x(81)#81 + 250 x(82)#82 + 913 x(83)#83 + 13 x(84)#84 + 89 x(85)#85
      + 307 x(86)#86 + 820 x(87)#87 + 111 x(88)#88 + 932 x(89)#89
      + 367 x(90)#90 + 892 x(91)#91 + 779 x(92)#92 + 139 x(93)#93
      + 479 x(94)#94 + 313 x(95)#95 + 277 x(96)#96 + 673 x(97)#97
      + 100 x(98)#98 + 970 x(99)#99 <= 35798
 c2:  515 x(0)#0 + 760 x(1)#1 + 535 x(2)#2 + 34 x(3)#3 + 174 x(4)#4
      + 892 x(5)#5 + 546 x(6)#6 + 669 x(7)#7 + 484 x(8)#8 + 989 x(9)#9
      + 841 x(10)#10 + 169 x(11)#11 + 707 x(12)#12 + 1000 x(13)#13
      + 568 x(14)#14 + 333 x(15)#15 + 886 x(16)#16 + 997 x(17)#17
      + 908 x(18)#18 + 674 x(19)#19 + 303 x(20)#20 + 111 x(21)#21
      + 585 x(22)#22 + 148 x(23)#23 + 720 x(24)#24 + 773 x(25)#25 + 87 x(26)#26
      + 870 x(27)#27 + 473 x(28)#28 + 283 x(29)#29 + 563 x(30)#30 + 88 x(31)#31
      + 577 x(32)#32 + 167 x(33)#33 + 798 x(34)#34 + 331 x(35)#35
      + 125 x(36)#36 + 213 x(37)#37 + 240 x(38)#38 + 54 x(39)#39 + 473 x(40)#40
      + 690 x(41)#41 + 186 x(42)#42 + 440 x(43)#43 + 162 x(44)#44
      + 520 x(45)#45 + 767 x(46)#46 + 388 x(47)#47 + 143 x(48)#48
      + 126 x(49)#49 + 616 x(50)#50 + 626 x(51)#51 + 603 x(52)#52
      + 780 x(53)#53 + 345 x(54)#54 + 52 x(55)#55 + 523 x(56)#56 + 682 x(57)#57
      + 64 x(58)#58 + 964 x(59)#59 + 991 x(60)#60 + 622 x(61)#61 + 463 x(62)#62
      + 190 x(63)#63 + 851 x(64)#64 + 31 x(65)#65 + 565 x(66)#66 + 745 x(67)#67
      + 323 x(68)#68 + 797 x(69)#69 + 481 x(70)#70 + 644 x(71)#71
      + 192 x(72)#72 + 412 x(73)#73 + 41 x(74)#74 + 426 x(75)#75 + 797 x(76)#76
      + 621 x(77)#77 + 446 x(78)#78 + 861 x(79)#79 + 344 x(80)#80
      + 179 x(81)#81 + 928 x(82)#82 + 940 x(83)#83 + 17 x(84)#84 + 85 x(85)#85
      + 185 x(86)#86 + 613 x(87)#87 + 172 x(88)#88 + 401 x(89)#89
      + 970 x(90)#90 + 449 x(91)#91 + 87 x(92)#92 + 339 x(93)#93 + 687 x(94)#94
      + 850 x(95)#95 + 858 x(96)#96 + 368 x(97)#97 + 892 x(98)#98
      + 837 x(99)#99 <= 37530
 c3:  848 x(0)#0 + 909 x(1)#1 + 12 x(2)#2 + 622 x(3)#3 + 506 x(4)#4
      + 158 x(5)#5 + 678 x(6)#6 + 664 x(7)#7 + 790 x(8)#8 + 991 x(9)#9
      + 782 x(10)#10 + 50 x(11)#11 + 506 x(12)#12 + 412 x(13)#13 + 68 x(14)#14
      + 472 x(15)#15 + 163 x(16)#16 + 410 x(17)#17 + 54 x(18)#18 + 119 x(19)#19
      + 644 x(20)#20 + 90 x(21)#21 + 559 x(22)#22 + 846 x(23)#23 + 87 x(24)#24
      + 321 x(25)#25 + 236 x(26)#26 + 317 x(27)#27 + 804 x(28)#28
      + 208 x(29)#29 + 706 x(30)#30 + 294 x(31)#31 + 549 x(32)#32
      + 980 x(33)#33 + 226 x(34)#34 + 310 x(35)#35 + 197 x(36)#36
      + 173 x(37)#37 + 96 x(38)#38 + 586 x(39)#39 + 620 x(40)#40 + 647 x(41)#41
      + 62 x(42)#42 + 225 x(43)#43 + 28 x(44)#44 + 402 x(45)#45 + 291 x(46)#46
      + 438 x(47)#47 + 656 x(48)#48 + 234 x(49)#49 + 19 x(50)#50 + 530 x(51)#51
      + 297 x(52)#52 + 622 x(53)#53 + 613 x(54)#54 + 195 x(55)#55
      + 624 x(56)#56 + 89 x(57)#57 + 990 x(58)#58 + 119 x(59)#59 + 355 x(60)#60
      + 370 x(61)#61 + 593 x(62)#62 + 326 x(63)#63 + 880 x(64)#64
      + 843 x(65)#65 + 859 x(66)#66 + 843 x(67)#67 + 507 x(68)#68 + 27 x(69)#69
      + 96 x(70)#70 + 912 x(71)#71 + 839 x(72)#72 + 76 x(73)#73 + 760 x(74)#74
      + 636 x(75)#75 + 302 x(76)#76 + 741 x(77)#77 + 118 x(78)#78
      + 878 x(79)#79 + 488 x(80)#80 + 741 x(81)#81 + 22 x(82)#82 + 550 x(83)#83
      + 485 x(84)#84 + 492 x(85)#85 + 412 x(86)#86 + 200 x(87)#87
      + 403 x(88)#88 + 26 x(89)#89 + 709 x(90)#90 + 224 x(91)#91 + 862 x(92)#92
      + 219 x(93)#93 + 703 x(94)#94 + 340 x(95)#95 + 603 x(96)#96
      + 497 x(97)#97 + 63 x(98)#98 + 260 x(99)#99 <= 33303
 c4:  131 x(0)#0 + 72 x(1)#1 + 205 x(2)#2 + 258 x(3)#3 + 71 x(4)#4 + 935 x(5)#5
      + 457 x(6)#6 + 737 x(7)#7 + 408 x(8)#8 + 572 x(9)#9 + 29 x(10)#10
      + 496 x(11)#11 + 724 x(12)#12 + 748 x(13)#13 + 424 x(14)#14
      + 859 x(15)#15 + 479 x(16)#16 + 909 x(17)#17 + 38 x(18)#18 + 389 x(19)#19
      + 967 x(20)#20 + 524 x(21)#21 + 32 x(22)#22 + 344 x(23)#23 + 134 x(24)#24
      + 909 x(25)#25 + 916 x(26)#26 + 32 x(27)#27 + 781 x(28)#28 + 110 x(29)#29
      + 101 x(30)#30 + 114 x(31)#31 + 685 x(32)#32 + 907 x(33)#33
      + 752 x(34)#34 + 600 x(35)#35 + 245 x(36)#36 + 743 x(37)#37
      + 852 x(38)#38 + 730 x(39)#39 + 882 x(40)#40 + 287 x(41)#41 + 71 x(42)#42
      + 515 x(43)#43 + 194 x(44)#44 + 543 x(45)#45 + 160 x(46)#46
      + 881 x(47)#47 + 775 x(48)#48 + 400 x(49)#49 + 993 x(50)#50
      + 882 x(51)#51 + 932 x(52)#52 + 72 x(53)#53 + 16 x(54)#54 + 167 x(55)#55
      + 665 x(56)#56 + 144 x(57)#57 + 145 x(58)#58 + 225 x(59)#59 + 86 x(60)#60
      + 19 x(61)#61 + 422 x(62)#62 + 934 x(63)#63 + 241 x(64)#64 + 988 x(65)#65
      + 257 x(66)#66 + 738 x(67)#67 + 896 x(68)#68 + 493 x(69)#69
      + 823 x(70)#70 + 21 x(71)#71 + 181 x(72)#72 + 135 x(73)#73 + 253 x(74)#74
      + 825 x(75)#75 + 876 x(76)#76 + 740 x(77)#77 + 584 x(78)#78
      + 480 x(79)#79 + 22 x(80)#80 + 278 x(81)#81 + 886 x(82)#82 + 159 x(83)#83
      + 218 x(84)#84 + 93 x(85)#85 + 61 x(86)#86 + 356 x(87)#87 + 641 x(88)#88
      + 643 x(89)#89 + 30 x(90)#90 + 569 x(91)#91 + 495 x(92)#92 + 960 x(93)#93
      + 513 x(94)#94 + 222 x(95)#95 + 328 x(96)#96 + 252 x(97)#97
      + 576 x(98)#98 + 64 x(99)#99 <= 34295
 c5:  96 x(0)#0 + 808 x(1)#1 + 827 x(2)#2 + 299 x(3)#3 + 216 x(4)#4
      + 843 x(5)#5 + 383 x(6)#6 + 137 x(7)#7 + 745 x(8)#8 + 197 x(9)#9
      + 462 x(10)#10 + 800 x(11)#11 + 858 x(12)#12 + 174 x(13)#13
      + 748 x(14)#14 + 596 x(15)#15 + 50 x(16)#16 + 948 x(17)#17 + 982 x(18)#18
      + 785 x(19)#19 + 932 x(20)#20 + 678 x(21)#21 + 779 x(22)#22
      + 839 x(23)#23 + 286 x(24)#24 + 604 x(25)#25 + 352 x(26)#26
      + 691 x(27)#27 + 160 x(28)#28 + 722 x(29)#29 + 756 x(30)#30 + 98 x(31)#31
      + 989 x(32)#32 + 713 x(33)#33 + 736 x(34)#34 + 925 x(35)#35
      + 354 x(36)#36 + 460 x(37)#37 + 997 x(38)#38 + 754 x(39)#39
      + 153 x(40)#40 + 402 x(41)#41 + 370 x(42)#42 + 888 x(43)#43
      + 845 x(44)#44 + 200 x(45)#45 + 948 x(46)#46 + 89 x(47)#47 + 259 x(48)#48
      + 92 x(49)#49 + 172 x(50)#50 + 837 x(51)#51 + 636 x(52)#52 + 74 x(53)#53
      + 255 x(54)#54 + 402 x(55)#55 + 581 x(56)#56 + 255 x(57)#57
      + 953 x(58)#58 + 797 x(59)#59 + 411 x(60)#60 + 671 x(61)#61
      + 646 x(62)#62 + 719 x(63)#63 + 327 x(64)#64 + 934 x(65)#65
      + 534 x(66)#66 + 233 x(67)#67 + 886 x(68)#68 + 585 x(69)#69
      + 894 x(70)#70 + 878 x(71)#71 + 988 x(72)#72 + 242 x(73)#73 + 70 x(74)#74
      + 610 x(75)#75 + 998 x(76)#76 + 325 x(77)#77 + 278 x(78)#78
      + 429 x(79)#79 + 212 x(80)#80 + 222 x(81)#81 + 975 x(82)#82
      + 103 x(83)#83 + 537 x(84)#84 + 670 x(85)#85 + 195 x(86)#86
      + 988 x(87)#87 + 803 x(88)#88 + 922 x(89)#89 + 516 x(90)#90
      + 972 x(91)#91 + 672 x(92)#92 + 922 x(93)#93 + 822 x(94)#94
      + 633 x(95)#95 + 630 x(96)#96 + 602 x(97)#97 + 620 x(98)#98
      + 304 x(99)#99 <= 42724
 c6:  321 x(0)#0 + 298 x(1)#1 + 139 x(2)#2 + 995 x(3)#3 + 211 x(4)#4
      + 310 x(5)#5 + 200 x(6)#6 + 964 x(7)#7 + 485 x(8)#8 + 229 x(9)#9
      + 865 x(10)#10 + 538 x(11)#11 + 888 x(12)#12 + 665 x(13)#13 + 78 x(14)#14
      + 385 x(15)#15 + 105 x(16)#16 + 859 x(17)#17 + 991 x(18)#18
      + 683 x(19)#19 + 216 x(20)#20 + 244 x(21)#21 + 891 x(22)#22
      + 625 x(23)#23 + 991 x(24)#24 + 620 x(25)#25 + 891 x(26)#26
      + 671 x(27)#27 + 795 x(28)#28 + 243 x(29)#29 + 506 x(30)#30
      + 730 x(31)#31 + 92 x(32)#32 + 536 x(33)#33 + 291 x(34)#34 + 258 x(35)#35
      + 621 x(36)#36 + 829 x(37)#37 + 280 x(38)#38 + 1000 x(39)#39 + 2 x(40)#40
      + 214 x(41)#41 + 799 x(42)#42 + 622 x(43)#43 + 796 x(44)#44
      + 150 x(45)#45 + 818 x(46)#46 + 993 x(47)#47 + 734 x(48)#48 + 48 x(49)#49
      + 138 x(50)#50 + 864 x(51)#51 + 388 x(52)#52 + 798 x(53)#53
      + 500 x(54)#54 + 137 x(55)#55 + 640 x(56)#56 + 620 x(57)#57
      + 190 x(58)#58 + 720 x(59)#59 + 717 x(60)#60 + 785 x(61)#61
      + 818 x(62)#62 + 7 x(63)#63 + 88 x(64)#64 + 250 x(65)#65 + 943 x(66)#66
      + 876 x(67)#67 + 89 x(68)#68 + 191 x(69)#69 + 944 x(70)#70 + 436 x(71)#71
      + 861 x(72)#72 + 299 x(73)#73 + 430 x(74)#74 + 555 x(75)#75
      + 289 x(76)#76 + 340 x(77)#77 + 643 x(78)#78 + 681 x(79)#79
      + 806 x(80)#80 + 734 x(81)#81 + 789 x(82)#82 + 107 x(83)#83
      + 728 x(84)#84 + 791 x(85)#85 + 951 x(86)#86 + 871 x(87)#87
      + 276 x(88)#88 + 170 x(89)#89 + 855 x(90)#90 + 566 x(91)#91
      + 436 x(92)#92 + 629 x(93)#93 + 594 x(94)#94 + 911 x(95)#95
      + 420 x(96)#96 + 641 x(97)#97 + 415 x(98)#98 + 183 x(99)#99 <= 40369
 c7:  25 x(0)#0 + 957 x(1)#1 + 470 x(2)#2 + 274 x(3)#3 + 367 x(4)#4
      + 585 x(5)#5 + 374 x(6)#6 + 263 x(7)#7 + 792 x(8)#8 + 67 x(9)#9
      + 649 x(10)#10 + 711 x(11)#11 + 627 x(12)#12 + 660 x(13)#13
      + 200 x(14)#14 + 509 x(15)#15 + 178 x(16)#16 + 135 x(17)#17
      + 966 x(18)#18 + 394 x(19)#19 + 314 x(20)#20 + 231 x(21)#21
      + 750 x(22)#22 + 583 x(23)#23 + 992 x(24)#24 + 270 x(25)#25
      + 755 x(26)#26 + 426 x(27)#27 + 352 x(28)#28 + 533 x(29)#29
      + 291 x(30)#30 + 340 x(31)#31 + 677 x(32)#32 + 622 x(33)#33
      + 786 x(34)#34 + 184 x(35)#35 + 511 x(36)#36 + 962 x(37)#37
      + 280 x(38)#38 + 572 x(39)#39 + 264 x(40)#40 + 796 x(41)#41
      + 579 x(42)#42 + 557 x(43)#43 + 956 x(44)#44 + 122 x(45)#45
      + 819 x(46)#46 + 292 x(47)#47 + 292 x(48)#48 + 375 x(49)#49
      + 143 x(50)#50 + 786 x(51)#51 + 322 x(52)#52 + 314 x(53)#53
      + 234 x(54)#54 + 972 x(55)#55 + 569 x(56)#56 + 676 x(57)#57
      + 332 x(58)#58 + 743 x(59)#59 + 604 x(60)#60 + 692 x(61)#61
      + 186 x(62)#62 + 403 x(63)#63 + 131 x(64)#64 + 547 x(65)#65
      + 166 x(66)#66 + 351 x(67)#67 + 205 x(68)#68 + 334 x(69)#69
      + 756 x(70)#70 + 592 x(71)#71 + 41 x(72)#72 + 694 x(73)#73 + 522 x(74)#74
      + 897 x(75)#75 + 474 x(76)#76 + 201 x(77)#77 + 125 x(78)#78
      + 577 x(79)#79 + 157 x(80)#80 + 991 x(81)#81 + 195 x(82)#82
      + 335 x(83)#83 + 92 x(84)#84 + 20 x(85)#85 + 467 x(86)#86 + 598 x(87)#87
      + 120 x(88)#88 + 448 x(89)#89 + 6 x(90)#90 + 336 x(91)#91 + 584 x(92)#92
      + 744 x(93)#93 + 445 x(94)#94 + 484 x(95)#95 + 13 x(96)#96 + 563 x(97)#97
      + 64 x(98)#98 + 703 x(99)#99 <= 34230
 c8:  585 x(0)#0 + 924 x(1)#1 + 210 x(2)#2 + 332 x(3)#3 + 227 x(4)#4
      + 330 x(5)#5 + 981 x(6)#6 + 692 x(7)#7 + 83 x(8)#8 + 761 x(9)#9
      + 862 x(10)#10 + 4 x(11)#11 + 469 x(12)#12 + 862 x(13)#13 + 785 x(14)#14
      + 304 x(15)#15 + 336 x(16)#16 + 660 x(17)#17 + 339 x(18)#18
      + 611 x(19)#19 + 436 x(20)#20 + 354 x(21)#21 + 569 x(22)#22
      + 348 x(23)#23 + 693 x(24)#24 + 97 x(25)#25 + 444 x(26)#26 + 823 x(27)#27
      + 554 x(28)#28 + 366 x(29)#29 + 513 x(30)#30 + 73 x(31)#31 + 708 x(32)#32
      + 204 x(33)#33 + 777 x(34)#34 + 928 x(35)#35 + 534 x(36)#36
      + 903 x(37)#37 + 574 x(38)#38 + 574 x(39)#39 + 377 x(40)#40
      + 984 x(41)#41 + 272 x(42)#42 + 877 x(43)#43 + 229 x(44)#44
      + 804 x(45)#45 + 154 x(46)#46 + 167 x(47)#47 + 991 x(48)#48
      + 635 x(49)#49 + 1000 x(50)#50 + 60 x(51)#51 + 845 x(52)#52
      + 561 x(53)#53 + 997 x(54)#54 + 434 x(55)#55 + 482 x(56)#56
      + 406 x(57)#57 + 54 x(58)#58 + 252 x(59)#59 + 522 x(60)#60 + 357 x(61)#61
      + 728 x(62)#62 + 339 x(63)#63 + 620 x(64)#64 + 967 x(65)#65
      + 858 x(66)#66 + 37 x(67)#67 + 979 x(68)#68 + 318 x(69)#69 + 330 x(70)#70
      + 919 x(71)#71 + 867 x(72)#72 + 305 x(73)#73 + 89 x(74)#74 + 91 x(75)#75
      + 971 x(76)#76 + 266 x(77)#77 + 654 x(78)#78 + 906 x(79)#79
      + 143 x(80)#80 + 128 x(81)#81 + 99 x(82)#82 + 281 x(83)#83 + 819 x(84)#84
      + 941 x(85)#85 + 841 x(86)#86 + 692 x(87)#87 + 191 x(88)#88
      + 415 x(89)#89 + 412 x(90)#90 + 963 x(91)#91 + 757 x(92)#92
      + 800 x(93)#93 + 270 x(94)#94 + 590 x(95)#95 + 523 x(96)#96
      + 556 x(97)#97 + 885 x(98)#98 + 745 x(99)#99 <= 40188
 c9:  648 x(0)#0 + 646 x(1)#1 + 860 x(2)#2 + 847 x(3)#3 + 825 x(4)#4
      + 473 x(5)#5 + 850 x(6)#6 + 600 x(7)#7 + 609 x(8)#8 + 631 x(9)#9
      + 588 x(10)#10 + 715 x(11)#11 + 106 x(12)#12 + 875 x(13)#13
      + 316 x(14)#14 + 42 x(15)#15 + 830 x(16)#16 + 999 x(17)#17 + 70 x(18)#18
      + 728 x(19)#19 + 284 x(20)#20 + 117 x(21)#21 + 382 x(22)#22
      + 739 x(23)#23 + 707 x(24)#24 + 198 x(25)#25 + 115 x(26)#26
      + 122 x(27)#27 + 72 x(28)#28 + 564 x(29)#29 + 249 x(30)#30 + 197 x(31)#31
      + 935 x(32)#32 + 591 x(33)#33 + 722 x(34)#34 + 454 x(35)#35
      + 139 x(36)#36 + 258 x(37)#37 + 51 x(38)#38 + 19 x(39)#39 + 590 x(40)#40
      + 683 x(41)#41 + 606 x(42)#42 + 528 x(43)#43 + 415 x(44)#44 + 93 x(45)#45
      + 826 x(46)#46 + 167 x(47)#47 + 959 x(48)#48 + 406 x(49)#49
      + 764 x(50)#50 + 128 x(51)#51 + 145 x(52)#52 + 55 x(53)#53 + 627 x(54)#54
      + 958 x(55)#55 + 589 x(56)#56 + 383 x(57)#57 + 351 x(58)#58
      + 974 x(59)#59 + 843 x(60)#60 + 134 x(61)#61 + 912 x(62)#62
      + 897 x(63)#63 + 839 x(64)#64 + 794 x(65)#65 + 285 x(66)#66
      + 508 x(67)#67 + 458 x(68)#68 + 748 x(69)#69 + 987 x(70)#70
      + 788 x(71)#71 + 202 x(72)#72 + 375 x(73)#73 + 234 x(74)#74
      + 723 x(75)#75 + 990 x(76)#76 + 622 x(77)#77 + 302 x(78)#78
      + 840 x(79)#79 + 820 x(80)#80 + 770 x(81)#81 + 650 x(82)#82
      + 914 x(83)#83 + 151 x(84)#84 + 326 x(85)#85 + 540 x(86)#86
      + 123 x(87)#87 + 225 x(88)#88 + 428 x(89)#89 + 945 x(90)#90
      + 164 x(91)#91 + 172 x(92)#92 + 731 x(93)#93 + 559 x(94)#94
      + 476 x(95)#95 + 897 x(96)#96 + 526 x(97)#97 + 869 x(98)#98
      + 593 x(99)#99 <= 39585
 c10: 812 x(0)#0 + 510 x(1)#1 + 915 x(2)#2 + 170 x(3)#3 + 269 x(4)#4
      + 363 x(5)#5 + 880 x(6)#6 + 186 x(7)#7 + 744 x(8)#8 + 781 x(9)#9
      + 447 x(10)#10 + 605 x(11)#11 + 407 x(12)#12 + 565 x(13)#13
      + 569 x(14)#14 + 391 x(15)#15 + 293 x(16)#16 + 809 x(17)#17
      + 545 x(18)#18 + 329 x(19)#19 + 513 x(20)#20 + 268 x(21)#21
      + 514 x(22)#22 + 147 x(23)#23 + 548 x(24)#24 + 834 x(25)#25
      + 609 x(26)#26 + 856 x(27)#27 + 483 x(28)#28 + 300 x(29)#29
      + 137 x(30)#30 + 428 x(31)#31 + 995 x(32)#32 + 736 x(33)#33
      + 658 x(34)#34 + 95 x(35)#35 + 992 x(36)#36 + 630 x(37)#37 + 601 x(38)#38
      + 14 x(39)#39 + 507 x(40)#40 + 674 x(41)#41 + 695 x(42)#42 + 830 x(43)#43
      + 711 x(44)#44 + 732 x(45)#45 + 545 x(46)#46 + 535 x(47)#47 + 91 x(48)#48
      + 937 x(49)#49 + 562 x(50)#50 + 266 x(51)#51 + 652 x(52)#52 + 7 x(53)#53
      + 554 x(54)#54 + 427 x(55)#55 + 146 x(56)#56 + 939 x(57)#57 + 44 x(58)#58
      + 388 x(59)#59 + 47 x(60)#60 + 187 x(61)#61 + 402 x(62)#62 + 783 x(63)#63
      + 182 x(64)#64 + 331 x(65)#65 + 234 x(66)#66 + 545 x(67)#67
      + 338 x(68)#68 + 400 x(69)#69 + 565 x(70)#70 + 279 x(71)#71
      + 569 x(72)#72 + 494 x(73)#73 + 276 x(74)#74 + 242 x(75)#75
      + 869 x(76)#76 + 617 x(77)#77 + 177 x(78)#78 + 66 x(79)#79 + 217 x(80)#80
      + 621 x(81)#81 + 6 x(82)#82 + 980 x(83)#83 + 379 x(84)#84 + 686 x(85)#85
      + 904 x(86)#86 + 179 x(87)#87 + 597 x(88)#88 + 631 x(89)#89
      + 809 x(90)#90 + 480 x(91)#91 + 572 x(92)#92 + 268 x(93)#93
      + 320 x(94)#94 + 865 x(95)#95 + 309 x(96)#96 + 54 x(97)#97 + 457 x(98)#98
      + 98 x(99)#99 <= 36169
Bounds
 0 <= x(0)#0 <= 1
 0 <= x(1)#1 <= 1
 0 <= x(2)#2 <= 1
 0 <= x(3)#3 <= 1
 0 <= x(4)#4 <= 1
 0 <= x(5)#5 <= 1
 0 <= x(6)#6 <= 1
 0 <= x(7)#7 <= 1
 0 <= x(8)#8 <= 1
 0 <= x(9)#9 <= 1
 0 <= x(10)#10 <= 1
 0 <= x(11)#11 <= 1
 0 <= x(12)#12 <= 1
 0 <= x(13)#13 <= 1
 0 <= x(14)#14 <= 1
 0 <= x(15)#15 <= 1
 0 <= x(16)#16 <= 1
 0 <= x(17)#17 <= 1
 0 <= x(18)#18 <= 1
 0 <= x(19)#19 <= 1
 0 <= x(20)#20 <= 1
 0 <= x(21)#21 <= 1
 0 <= x(22)#22 <= 1
 0 <= x(23)#23 <= 1
 0 <= x(24)#24 <= 1
 0 <= x(25)#25 <= 1
 0 <= x(26)#26 <= 1
 0 <= x(27)#27 <= 1
 0 <= x(28)#28 <= 1
 0 <= x(29)#29 <= 1
 0 <= x(30)#30 <= 1
 0 <= x(31)#31 <= 1
 0 <= x(32)#32 <= 1
 0 <= x(33)#33 <= 1
 0 <= x(34)#34 <= 1
 0 <= x(35)#35 <= 1
 0 <= x(36)#36 <= 1
 0 <= x(37)#37 <= 1
 0 <= x(38)#38 <= 1
 0 <= x(39)#39 <= 1
 0 <= x(40)#40 <= 1
 0 <= x(41)#41 <= 1
 0 <= x(42)#42 <= 1
 0 <= x(43)#43 <= 1
 0 <= x(44)#44 <= 1
 0 <= x(45)#45 <= 1
 0 <= x(46)#46 <= 1
 0 <= x(47)#47 <= 1
 0 <= x(48)#48 <= 1
 0 <= x(49)#49 <= 1
 0 <= x(50)#50 <= 1
 0 <= x(51)#51 <= 1
 0 <= x(52)#52 <= 1
 0 <= x(53)#53 <= 1
 0 <= x(54)#54 <= 1
 0 <= x(55)#55 <= 1
 0 <= x(56)#56 <= 1
 0 <= x(57)#57 <= 1
 0 <= x(58)#58 <= 1
 0 <= x(59)#59 <= 1
 0 <= x(60)#60 <= 1
 0 <= x(61)#61 <= 1
 0 <= x(62)#62 <= 1
 0 <= x(63)#63 <= 1
 0 <= x(64)#64 <= 1
 0 <= x(65)#65 <= 1
 0 <= x(66)#66 <= 1
 0 <= x(67)#67 <= 1
 0 <= x(68)#68 <= 1
 0 <= x(69)#69 <= 1
 0 <= x(70)#70 <= 1
 0 <= x(71)#71 <= 1
 0 <= x(72)#72 <= 1
 0 <= x(73)#73 <= 1
 0 <= x(74)#74 <= 1
 0 <= x(75)#75 <= 1
 0 <= x(76)#76 <= 1
 0 <= x(77)#77 <= 1
 0 <= x(78)#78 <= 1
 0 <= x(79)#79 <= 1
 0 <= x(80)#80 <= 1
 0 <= x(81)#81 <= 1
 0 <= x(82)#82 <= 1
 0 <= x(83)#83 <= 1
 0 <= x(84)#84 <= 1
 0 <= x(85)#85 <= 1
 0 <= x(86)#86 <= 1
 0 <= x(87)#87 <= 1
 0 <= x(88)#88 <= 1
 0 <= x(89)#89 <= 1
 0 <= x(90)#90 <= 1
 0 <= x(91)#91 <= 1
 0 <= x(92)#92 <= 1
 0 <= x(93)#93 <= 1
 0 <= x(94)#94 <= 1
 0 <= x(95)#95 <= 1
 0 <= x(96)#96 <= 1
 0 <= x(97)#97 <= 1
 0 <= x(98)#98 <= 1
 0 <= x(99)#99 <= 1
Generals
 x(0)#0  x(1)#1  x(2)#2  x(3)#3  x(4)#4  x(5)#5  x(6)#6  x(7)#7  x(8)#8 
 x(9)#9  x(10)#10  x(11)#11  x(12)#12  x(13)#13  x(14)#14  x(15)#15  x(16)#16 
 x(17)#17  x(18)#18  x(19)#19  x(20)#20  x(21)#21  x(22)#22  x(23)#23 
 x(24)#24  x(25)#25  x(26)#26  x(27)#27  x(28)#28  x(29)#29  x(30)#30 
 x(31)#31  x(32)#32  x(33)#33  x(34)#34  x(35)#35  x(36)#36  x(37)#37 
 x(38)#38  x(39)#39  x(40)#40  x(41)#41  x(42)#42  x(43)#43  x(44)#44 
 x(45)#45  x(46)#46  x(47)#47  x(48)#48  x(49)#49  x(50)#50  x(51)#51 
 x(52)#52  x(53)#53  x(54)#54  x(55)#55  x(56)#56  x(57)#57  x(58)#58 
 x(59)#59  x(60)#60  x(61)#61  x(62)#62  x(63)#63  x(64)#64  x(65)#65 
 x(66)#66  x(67)#67  x(68)#68  x(69)#69  x(70)#70  x(71)#71  x(72)#72 
 x(73)#73  x(74)#74  x(75)#75  x(76)#76  x(77)#77  x(78)#78  x(79)#79 
 x(80)#80  x(81)#81  x(82)#82  x(83)#83  x(84)#84  x(85)#85  x(86)#86 
 x(87)#87  x(88)#88  x(89)#89  x(90)#90  x(91)#91  x(92)#92  x(93)#93 
 x(94)#94  x(95)#95  x(96)#96  x(97)#97  x(98)#98  x(99)#99 
End
